(set-logic QF_S)
(declare-fun var_0xINPUT_67696 () String)
(assert (and (= (len var_0xINPUT_67696) 0) (= (len var_0xINPUT_67696) 0) (not (= var_0xINPUT_67696 "YY8CBEMy6Q"))))
(check-sat var_0xINPUT_67696)